HUN,8,6,293
5,22,2,25,3,22,1,27,0,26,4,24
4,24,1,28,2,25,0,27,5,30,3,26
0,21,2,21,3,28,1,30,4,22,5,29
1,22,4,21,3,23,5,29,0,21,2,25
2,23,3,26,4,25,1,27,0,25,5,25
0,30,3,26,5,27,2,25,4,30,1,24
3,26,1,24,2,21,5,27,4,29,0,24
3,24,0,24,4,23,5,25,1,23,2,23
